(set-info :status unsat)
(declare-const symbol_0 (_ BitVec 32))
(declare-const symbol_3 (_ BitVec 32))
(declare-const symbol_1 (_ BitVec 32))
(assert (= symbol_3 (_ bv5 32)))
(assert (not (not (= symbol_3 (_ bv4 32)))))
(assert (not (not (= symbol_1 (_ bv4 32)))))
(assert (not (not (= symbol_0 (_ bv4 32)))))
(check-sat)